p cnf 12 46 
c Factors encoded in variables 1-6 and 7-12
c Target number: 2809
c Factors: 53 x 53
4 2 9 -8 0
-4 -2 9 0
4 3 2 0
-5 -4 2 -9 0
5 4 -3 -9 0
11 0
-5 -4 -2 9 0
-4 3 2 -8 0
4 -3 -2 0
5 3 8 0
5 4 3 2 9 0
-10 0
1 0
-4 3 -9 0
-5 -4 -3 -2 -9 0
5 3 2 8 0
-5 -2 0
5 2 -9 0
7 0
5 4 3 0
5 4 3 9 0
-4 -3 2 0
5 4 0
3 -9 -8 0
-4 -3 -9 8 0
-4 9 -8 0
-5 3 2 9 8 0
4 9 8 0
4 3 8 0
12 0
4 -2 -8 0
-4 -2 -9 8 0
-9 -8 0
5 3 0
5 4 3 8 0
-4 -2 0
3 -9 0
-2 8 0
4 -3 -2 9 0
5 -3 2 9 0
6 0
-5 -4 -8 0
-3 9 0
2 -8 0
5 -4 0
-5 -4 0
